5 5
8 5 1 15 3 8 4 19 2 13 5 20 4 5 15 3 10 2 2 1 20 1 5 16 5 1 5 2 9 5 7 3 5 4 2 2 1 7 4 2 1 2 2 5 1 8 4 19 3 4 5 16 2 15 5 5 6 2 14 1 8 4 10 3 15
6 3 5 19 2 20 3 10 1 2 13 5 3 7 1 11 4 3 2 16 5 5 5 1 5 2 10 3 14 4 18 5 15 1 1 19 1 5 2
5 2 4 19 5 3 2 5 15 1 3 1 5 7 4 2 8 4 18 1 10 3 12 1 5 19
8 5 1 7 4 15 5 12 3 18 2 5 5 3 18 2 12 4 4 5 12 1 16 1 5 17 2 1 10 2 2 1 4 6 5 2 11 5 3 3 7 1 11 4 9 4 2 8 5 19 1 8 3 6 3 3 11 2 9 1 6
5 1 1 9 4 2 9 4 16 1 3 5 2 2 1 11 2 2 2 2 20 5 5 1 3 19